TCS_Benchmarks/redos_fix/snort3_output_distinct_4031_4030_56_0.txt
(.|\n|\r)*
((.|\n|\r)*)(<\s*[pP][rR][oO][pP][eE][rR][tT][yY][^>]*[nN][aA][mM][eE][^>]*[vV][aA][lL][uU][eE]\s*)([^>]*)
[^>]*